Route #1: 4 30 48 47 21 61 28 74
Route #2: 2 62 22 64 42 43 41 56 23 17
Route #3: 49 24 18 50 25 55 31 39 9 26
Route #4: 67 34 46 8 52 27 29 45
Route #5: 5 36 69 71 60 70 20 37 15 57 13 54 19 35
Route #6: 7 53 11 65 66 59 14
Route #7: 12 58 38 10 72 40 32 44 3
Route #8: 51 16 63 1 73 33 6 68 75
Cost 784